c Standarized MaxSat Instance
c{
c "sha1sum": "7ea0d9b8ee42cbeb49e82bec5808960badafaa0e",
c "nvars": 200,
c "ncls": 460,
c "total_lits": 879,
c "nhards": 260,
c "nhard_nlits": 679,
c "nhard_len_stats":
c    { "min": 2,
c      "max": 3,
c      "ave": 2.6115,
c      "stddev": 0.4874 },
c "nsofts": 200,
c "nsoft_nlits": 200,
c "nsoft_len_stats":
c    { "min": 1,
c      "max": 1,
c      "ave": 1.0000,
c      "stddev": 0.0000 },
c "nsoft_wts": 1,
c "soft_wt_stats":
c    { "min": 1,
c      "max": 1,
c      "ave": 1.0000,
c      "stddev": 0.0000 }
c}
c------------------------------------------------------------
c Output of pmcnf2wcnf by jpms@ecs.soton.ac.uk
c 
1 -1 0
1 -2 0
1 -3 0
1 -4 0
1 -5 0
1 -6 0
1 -7 0
1 -8 0
1 -9 0
1 -10 0
1 -11 0
1 -12 0
1 -13 0
1 -14 0
1 -15 0
1 -16 0
1 -17 0
1 -18 0
1 -19 0
1 -20 0
1 -21 0
1 -22 0
1 -23 0
1 -24 0
1 -25 0
1 -26 0
1 -27 0
1 -28 0
1 -29 0
1 -30 0
1 -31 0
1 -32 0
1 -33 0
1 -34 0
1 -35 0
1 -36 0
1 -37 0
1 -38 0
1 -39 0
1 -40 0
1 -41 0
1 -42 0
1 -43 0
1 -44 0
1 -45 0
1 -46 0
1 -47 0
1 -48 0
1 -49 0
1 -50 0
1 -51 0
1 -52 0
1 -53 0
1 -54 0
1 -55 0
1 -56 0
1 -57 0
1 -58 0
1 -59 0
1 -60 0
1 -61 0
1 -62 0
1 -63 0
1 -64 0
1 -65 0
1 -66 0
1 -67 0
1 -68 0
1 -69 0
1 -70 0
1 -71 0
1 -72 0
1 -73 0
1 -74 0
1 -75 0
1 -76 0
1 -77 0
1 -78 0
1 -79 0
1 -80 0
1 -81 0
1 -82 0
1 -83 0
1 -84 0
1 -85 0
1 -86 0
1 -87 0
1 -88 0
1 -89 0
1 -90 0
1 -91 0
1 -92 0
1 -93 0
1 -94 0
1 -95 0
1 -96 0
1 -97 0
1 -98 0
1 -99 0
1 -100 0
1 -101 0
1 -102 0
1 -103 0
1 -104 0
1 -105 0
1 -106 0
1 -107 0
1 -108 0
1 -109 0
1 -110 0
1 -111 0
1 -112 0
1 -113 0
1 -114 0
1 -115 0
1 -116 0
1 -117 0
1 -118 0
1 -119 0
1 -120 0
1 -121 0
1 -122 0
1 -123 0
1 -124 0
1 -125 0
1 -126 0
1 -127 0
1 -128 0
1 -129 0
1 -130 0
1 -131 0
1 -132 0
1 -133 0
1 -134 0
1 -135 0
1 -136 0
1 -137 0
1 -138 0
1 -139 0
1 -140 0
1 -141 0
1 -142 0
1 -143 0
1 -144 0
1 -145 0
1 -146 0
1 -147 0
1 -148 0
1 -149 0
1 -150 0
1 -151 0
1 -152 0
1 -153 0
1 -154 0
1 -155 0
1 -156 0
1 -157 0
1 -158 0
1 -159 0
1 -160 0
1 -161 0
1 -162 0
1 -163 0
1 -164 0
1 -165 0
1 -166 0
1 -167 0
1 -168 0
1 -169 0
1 -170 0
1 -171 0
1 -172 0
1 -173 0
1 -174 0
1 -175 0
1 -176 0
1 -177 0
1 -178 0
1 -179 0
1 -180 0
1 -181 0
1 -182 0
1 -183 0
1 -184 0
1 -185 0
1 -186 0
1 -187 0
1 -188 0
1 -189 0
1 -190 0
1 -191 0
1 -192 0
1 -193 0
1 -194 0
1 -195 0
1 -196 0
1 -197 0
1 -198 0
1 -199 0
1 -200 0
h 31 49 69 0
h 31 49 70 0
h 32 49 96 0
h 50 96 171 0
h 50 96 172 0
h 63 95 105 0
h 63 95 106 0
h 64 95 140 0
h 64 98 139 0
h 97 137 147 0
h 137 139 148 0
h 97 138 188 0
h 47 138 187 0
h 48 165 187 0
h 40 48 166 0
h 48 161 166 0
h 132 162 166 0
h 5 131 162 0
h 6 82 131 0
h 6 112 159 0
h 81 112 160 0
h 81 111 145 0
h 111 146 194 0
h 89 111 146 0
h 90 120 146 0
h 23 90 146 0
h 24 119 150 0
h 24 149 189 0
h 115 149 190 0
h 29 116 190 0
h 9 30 116 0
h 10 21 116 0
h 10 22 152 0
h 22 58 151 0
h 129 151 198 0
h 57 151 198 0
h 57 85 197 0
h 86 185 197 0
h 45 86 186 0
h 46 172 186 0
h 46 186 196 0
h 134 186 195 0
h 15 133 195 0
h 16 56 195 0
h 16 32 195 0
h 16 55 110 0
h 55 109 199 0
h 1 109 200 0
h 2 42 200 0
h 2 41 92 0
h 41 91 170 0
h 41 141 169 0
h 41 44 142 0
h 43 79 142 0
h 91 101 133 0
h 43 92 101 0
h 80 101 119 0
h 101 120 134 0
h 8 80 102 0
h 7 102 163 0
h 7 51 164 0
h 52 55 124 0
h 56 124 164 0
h 52 104 123 0
h 103 113 123 0
h 114 123 128 0
h 74 114 127 0
h 37 127 154 0
h 38 73 154 0
h 25 73 153 0
h 26 88 153 0
h 26 87 177 0
h 68 87 178 0
h 67 135 178 0
h 18 67 136 0
h 99 182 193 0
h 17 99 194 0
h 17 136 182 0
h 71 171 181 0
h 71 136 181 0
h 11 72 181 0
h 11 72 98 0
h 12 72 179 0
h 12 129 180 0
h 62 130 180 0
h 61 130 174 0
h 49 130 173 0
h 27 61 173 0
h 28 35 50 0
h 28 36 144 0
h 28 36 60 0
h 28 143 167 0
h 66 143 167 0
h 54 59 149 0
h 59 150 168 0
h 53 155 168 0
h 117 156 160 0
h 118 160 168 0
h 47 157 159 0
h 156 157 159 0
h 75 156 158 0
h 76 158 175 0
h 37 76 176 0
h 76 176 192 0
h 38 83 191 0
h 78 84 187 0
h 78 188 191 0
h 34 39 84 0
h 34 40 77 0
h 20 33 75 0
h 20 33 77 0
h 19 33 147 0
h 14 19 148 0
h 13 23 81 0
h 13 81 184 0
h 13 82 184 0
h 66 148 183 0
h 4 65 107 0
h 4 108 183 0
h 3 65 99 0
h 3 100 126 0
h 53 93 125 0
h 100 122 125 0
h 54 122 125 0
h 100 106 121 0
h 105 107 121 0
h 93 105 108 0
h 69 94 108 0
h 70 94 117 0
h 103 155 189 0
h 45 51 177 0
h 58 89 196 0
h 62 132 152 0
h 42 60 110 0
h 44 104 170 0
h 39 68 199 0
h 89 126 179 0
h 32 104 144 0
h 5 66 88 0
h 18 29 51 0
h 25 140 169 0
h 74 126 150 0
h 61 79 107 0
h 174 175 192 0
h 30 118 163 0
h 5 45 185 0
h 37 62 78 0
h 68 115 135 0
h 1 29 68 0
h 27 85 141 0
h 15 59 113 0
h 8 35 145 0
h 9 35 175 0
h 14 21 165 0
h 128 135 161 0
h 59 69 74 0
h 18 23 193 0
h 8 83 185 0
h 14 42 0
h 14 20 161 0
h -1 -2 0
h -3 -4 0
h -5 -6 0
h -7 -8 0
h -9 -10 0
h -11 -12 0
h -13 -14 0
h -15 -16 0
h -17 -18 0
h -19 -20 0
h -21 -22 0
h -23 -24 0
h -25 -26 0
h -27 -28 0
h -29 -30 0
h -31 -32 0
h -33 -34 0
h -35 -36 0
h -37 -38 0
h -39 -40 0
h -41 -42 0
h -43 -44 0
h -45 -46 0
h -47 -48 0
h -49 -50 0
h -51 -52 0
h -53 -54 0
h -55 -56 0
h -57 -58 0
h -59 -60 0
h -61 -62 0
h -63 -64 0
h -65 -66 0
h -67 -68 0
h -69 -70 0
h -71 -72 0
h -73 -74 0
h -75 -76 0
h -77 -78 0
h -79 -80 0
h -81 -82 0
h -83 -84 0
h -85 -86 0
h -87 -88 0
h -89 -90 0
h -91 -92 0
h -93 -94 0
h -95 -96 0
h -97 -98 0
h -99 -100 0
h -101 -102 0
h -103 -104 0
h -105 -106 0
h -107 -108 0
h -109 -110 0
h -111 -112 0
h -113 -114 0
h -115 -116 0
h -117 -118 0
h -119 -120 0
h -121 -122 0
h -123 -124 0
h -125 -126 0
h -127 -128 0
h -129 -130 0
h -131 -132 0
h -133 -134 0
h -135 -136 0
h -137 -138 0
h -139 -140 0
h -141 -142 0
h -143 -144 0
h -145 -146 0
h -147 -148 0
h -149 -150 0
h -151 -152 0
h -153 -154 0
h -155 -156 0
h -157 -158 0
h -159 -160 0
h -161 -162 0
h -163 -164 0
h -165 -166 0
h -167 -168 0
h -169 -170 0
h -171 -172 0
h -173 -174 0
h -175 -176 0
h -177 -178 0
h -179 -180 0
h -181 -182 0
h -183 -184 0
h -185 -186 0
h -187 -188 0
h -189 -190 0
h -191 -192 0
h -193 -194 0
h -195 -196 0
h -197 -198 0
h -199 -200 0
